\* Problem: projeto *\

Minimize
 distancia: + 25 y(1,1) + 90 y(2,1) + 20 y(3,1) + 90 y(4,1) + 90 y(1,2)
 + 70 y(2,2) + 90 y(3,2) + 25 y(4,2) + 25 y(1,3) + 90 y(2,3) + 90 y(3,3)
 + 90 y(4,3) + 90 y(1,4) + 25 y(2,4) + 90 y(3,4) + 90 y(4,4)

Subject To
 lim_localizacao(1): + y(1,1) + y(3,1) + y(4,1) = 1
 lim_localizacao(2): + y(1,2) + y(3,2) + y(4,2) = 1
 lim_localizacao(3): + y(1,3) + y(3,3) + y(4,3) = 1
 lim_localizacao(4): + y(1,4) + y(3,4) + y(4,4) = 1

Bounds
 0 <= y(1,1) <= 1
 0 <= y(2,1) <= 1
 0 <= y(3,1) <= 1
 0 <= y(4,1) <= 1
 0 <= y(1,2) <= 1
 0 <= y(2,2) <= 1
 0 <= y(3,2) <= 1
 0 <= y(4,2) <= 1
 0 <= y(1,3) <= 1
 0 <= y(2,3) <= 1
 0 <= y(3,3) <= 1
 0 <= y(4,3) <= 1
 0 <= y(1,4) <= 1
 0 <= y(2,4) <= 1
 0 <= y(3,4) <= 1
 0 <= y(4,4) <= 1

Generals
 y(1,1)
 y(2,1)
 y(3,1)
 y(4,1)
 y(1,2)
 y(2,2)
 y(3,2)
 y(4,2)
 y(1,3)
 y(2,3)
 y(3,3)
 y(4,3)
 y(1,4)
 y(2,4)
 y(3,4)
 y(4,4)

End
